c File: data_files/evolved_graphs/g0134.col
c
c Auto generated graph
c
p edge 100 1695
e 1 2
e 1 3
e 1 4
e 1 5
e 1 9
e 1 11
e 1 14
e 1 16
e 1 17
e 1 18
e 1 24
e 1 25
e 1 26
e 1 27
e 1 28
e 1 30
e 1 32
e 1 34
e 1 35
e 1 36
e 1 43
e 1 44
e 1 45
e 1 48
e 1 50
e 1 52
e 1 54
e 1 56
e 1 57
e 1 59
e 1 60
e 1 62
e 1 63
e 1 64
e 1 69
e 1 70
e 1 73
e 1 75
e 1 81
e 1 82
e 1 84
e 1 85
e 1 87
e 1 88
e 1 90
e 1 92
e 1 95
e 1 97
e 2 4
e 2 8
e 2 9
e 2 14
e 2 18
e 2 20
e 2 21
e 2 22
e 2 23
e 2 24
e 2 27
e 2 30
e 2 32
e 2 33
e 2 35
e 2 37
e 2 44
e 2 48
e 2 54
e 2 60
e 2 63
e 2 64
e 2 65
e 2 72
e 2 74
e 2 75
e 2 77
e 2 80
e 2 81
e 2 84
e 2 91
e 2 97
e 2 99
e 3 6
e 3 8
e 3 9
e 3 10
e 3 11
e 3 13
e 3 14
e 3 15
e 3 18
e 3 20
e 3 23
e 3 24
e 3 25
e 3 27
e 3 28
e 3 34
e 3 36
e 3 39
e 3 40
e 3 44
e 3 47
e 3 48
e 3 49
e 3 50
e 3 56
e 3 57
e 3 58
e 3 59
e 3 60
e 3 61
e 3 62
e 3 68
e 3 69
e 3 73
e 3 76
e 3 77
e 3 81
e 3 85
e 3 90
e 3 92
e 3 94
e 3 97
e 3 100
e 4 6
e 4 9
e 4 17
e 4 21
e 4 22
e 4 27
e 4 28
e 4 29
e 4 31
e 4 33
e 4 47
e 4 48
e 4 56
e 4 60
e 4 72
e 4 78
e 4 79
e 4 89
e 4 91
e 4 92
e 4 93
e 4 96
e 4 97
e 4 99
e 5 6
e 5 7
e 5 9
e 5 10
e 5 11
e 5 13
e 5 17
e 5 18
e 5 20
e 5 23
e 5 25
e 5 26
e 5 28
e 5 29
e 5 30
e 5 31
e 5 32
e 5 33
e 5 36
e 5 37
e 5 39
e 5 40
e 5 41
e 5 44
e 5 48
e 5 49
e 5 52
e 5 53
e 5 62
e 5 64
e 5 72
e 5 73
e 5 74
e 5 75
e 5 76
e 5 80
e 5 81
e 5 84
e 5 86
e 5 88
e 5 92
e 5 93
e 5 95
e 6 8
e 6 9
e 6 11
e 6 14
e 6 21
e 6 22
e 6 23
e 6 24
e 6 26
e 6 28
e 6 32
e 6 34
e 6 36
e 6 38
e 6 41
e 6 43
e 6 46
e 6 48
e 6 56
e 6 58
e 6 62
e 6 70
e 6 73
e 6 74
e 6 75
e 6 76
e 6 80
e 6 90
e 6 91
e 6 92
e 6 93
e 6 94
e 6 96
e 6 98
e 7 8
e 7 10
e 7 11
e 7 13
e 7 14
e 7 15
e 7 22
e 7 24
e 7 25
e 7 28
e 7 32
e 7 38
e 7 40
e 7 41
e 7 42
e 7 45
e 7 51
e 7 54
e 7 58
e 7 65
e 7 66
e 7 67
e 7 69
e 7 70
e 7 71
e 7 72
e 7 78
e 7 81
e 7 82
e 7 86
e 7 90
e 7 91
e 7 92
e 7 98
e 7 99
e 8 11
e 8 13
e 8 14
e 8 16
e 8 21
e 8 23
e 8 26
e 8 27
e 8 29
e 8 33
e 8 34
e 8 36
e 8 37
e 8 38
e 8 43
e 8 45
e 8 46
e 8 48
e 8 51
e 8 55
e 8 60
e 8 63
e 8 66
e 8 75
e 8 77
e 8 78
e 8 80
e 8 81
e 8 82
e 8 85
e 8 86
e 8 88
e 8 89
e 8 91
e 8 92
e 8 93
e 8 95
e 8 96
e 8 97
e 8 99
e 8 100
e 9 13
e 9 16
e 9 21
e 9 24
e 9 25
e 9 28
e 9 29
e 9 31
e 9 32
e 9 35
e 9 40
e 9 42
e 9 45
e 9 47
e 9 48
e 9 50
e 9 54
e 9 55
e 9 60
e 9 65
e 9 68
e 9 71
e 9 73
e 9 76
e 9 79
e 9 82
e 9 84
e 9 88
e 9 89
e 9 91
e 9 93
e 9 97
e 9 98
e 10 11
e 10 17
e 10 20
e 10 22
e 10 23
e 10 28
e 10 29
e 10 30
e 10 35
e 10 36
e 10 37
e 10 39
e 10 40
e 10 42
e 10 43
e 10 45
e 10 46
e 10 47
e 10 50
e 10 52
e 10 53
e 10 54
e 10 56
e 10 57
e 10 59
e 10 60
e 10 61
e 10 65
e 10 72
e 10 73
e 10 78
e 10 80
e 10 88
e 10 89
e 10 90
e 10 91
e 10 92
e 10 94
e 11 16
e 11 17
e 11 19
e 11 20
e 11 21
e 11 23
e 11 25
e 11 27
e 11 31
e 11 37
e 11 38
e 11 39
e 11 40
e 11 41
e 11 42
e 11 43
e 11 44
e 11 45
e 11 47
e 11 52
e 11 55
e 11 60
e 11 61
e 11 64
e 11 66
e 11 68
e 11 73
e 11 74
e 11 75
e 11 77
e 11 78
e 11 79
e 11 85
e 11 86
e 11 87
e 11 88
e 11 90
e 11 91
e 11 92
e 11 94
e 11 98
e 12 13
e 12 16
e 12 17
e 12 21
e 12 23
e 12 24
e 12 25
e 12 26
e 12 27
e 12 31
e 12 33
e 12 39
e 12 40
e 12 43
e 12 45
e 12 46
e 12 49
e 12 50
e 12 51
e 12 52
e 12 53
e 12 54
e 12 60
e 12 64
e 12 65
e 12 69
e 12 72
e 12 78
e 12 79
e 12 81
e 12 87
e 12 88
e 12 90
e 12 92
e 12 94
e 12 98
e 12 100
e 13 16
e 13 17
e 13 21
e 13 31
e 13 37
e 13 43
e 13 45
e 13 47
e 13 49
e 13 50
e 13 51
e 13 52
e 13 54
e 13 65
e 13 70
e 13 72
e 13 73
e 13 79
e 13 83
e 13 85
e 13 88
e 13 91
e 13 92
e 13 93
e 13 99
e 13 100
e 14 17
e 14 19
e 14 21
e 14 23
e 14 27
e 14 29
e 14 32
e 14 34
e 14 35
e 14 40
e 14 42
e 14 43
e 14 46
e 14 47
e 14 48
e 14 50
e 14 51
e 14 54
e 14 55
e 14 56
e 14 57
e 14 58
e 14 60
e 14 61
e 14 64
e 14 65
e 14 66
e 14 67
e 14 68
e 14 70
e 14 72
e 14 73
e 14 76
e 14 77
e 14 78
e 14 80
e 14 84
e 14 87
e 14 89
e 14 91
e 14 93
e 14 97
e 14 99
e 15 18
e 15 26
e 15 29
e 15 30
e 15 31
e 15 32
e 15 33
e 15 34
e 15 35
e 15 37
e 15 39
e 15 43
e 15 45
e 15 46
e 15 48
e 15 52
e 15 55
e 15 57
e 15 59
e 15 60
e 15 61
e 15 62
e 15 64
e 15 68
e 15 71
e 15 75
e 15 76
e 15 77
e 15 78
e 15 79
e 15 84
e 15 85
e 15 87
e 15 88
e 15 92
e 15 93
e 15 95
e 15 96
e 15 100
e 16 23
e 16 24
e 16 28
e 16 29
e 16 38
e 16 39
e 16 40
e 16 42
e 16 47
e 16 50
e 16 53
e 16 55
e 16 56
e 16 60
e 16 62
e 16 65
e 16 66
e 16 67
e 16 69
e 16 75
e 16 76
e 16 77
e 16 78
e 16 79
e 16 86
e 16 87
e 16 88
e 16 89
e 16 90
e 16 92
e 16 93
e 16 95
e 16 96
e 16 97
e 16 99
e 17 19
e 17 20
e 17 22
e 17 26
e 17 28
e 17 29
e 17 30
e 17 33
e 17 34
e 17 36
e 17 37
e 17 39
e 17 40
e 17 41
e 17 42
e 17 47
e 17 49
e 17 50
e 17 52
e 17 56
e 17 59
e 17 62
e 17 67
e 17 68
e 17 71
e 17 72
e 17 79
e 17 85
e 17 87
e 17 89
e 17 90
e 17 94
e 17 96
e 17 97
e 17 98
e 18 19
e 18 22
e 18 23
e 18 27
e 18 28
e 18 29
e 18 30
e 18 31
e 18 33
e 18 37
e 18 38
e 18 39
e 18 40
e 18 41
e 18 42
e 18 47
e 18 51
e 18 52
e 18 54
e 18 57
e 18 59
e 18 60
e 18 64
e 18 65
e 18 66
e 18 70
e 18 78
e 18 79
e 18 82
e 18 83
e 18 84
e 18 86
e 18 87
e 18 89
e 18 90
e 18 91
e 18 92
e 18 93
e 18 96
e 18 97
e 19 22
e 19 25
e 19 26
e 19 28
e 19 30
e 19 31
e 19 32
e 19 33
e 19 34
e 19 35
e 19 37
e 19 39
e 19 43
e 19 45
e 19 49
e 19 50
e 19 52
e 19 53
e 19 57
e 19 58
e 19 63
e 19 67
e 19 68
e 19 69
e 19 74
e 19 76
e 19 77
e 19 80
e 19 81
e 19 84
e 19 87
e 19 88
e 19 89
e 19 91
e 19 97
e 19 98
e 20 22
e 20 24
e 20 30
e 20 33
e 20 34
e 20 35
e 20 38
e 20 42
e 20 43
e 20 55
e 20 60
e 20 63
e 20 64
e 20 67
e 20 68
e 20 74
e 20 77
e 20 80
e 20 81
e 20 86
e 20 87
e 20 95
e 20 98
e 20 99
e 20 100
e 21 22
e 21 29
e 21 36
e 21 37
e 21 42
e 21 51
e 21 53
e 21 54
e 21 55
e 21 56
e 21 58
e 21 63
e 21 66
e 21 71
e 21 73
e 21 76
e 21 80
e 21 81
e 21 86
e 21 87
e 21 93
e 21 97
e 22 23
e 22 26
e 22 28
e 22 31
e 22 36
e 22 59
e 22 62
e 22 64
e 22 65
e 22 66
e 22 72
e 22 74
e 22 75
e 22 76
e 22 77
e 22 78
e 22 79
e 22 83
e 22 89
e 22 94
e 22 97
e 23 30
e 23 31
e 23 33
e 23 35
e 23 40
e 23 44
e 23 45
e 23 50
e 23 52
e 23 57
e 23 65
e 23 68
e 23 70
e 23 75
e 23 81
e 23 83
e 23 88
e 23 89
e 23 91
e 23 94
e 23 97
e 24 30
e 24 39
e 24 41
e 24 45
e 24 50
e 24 56
e 24 57
e 24 58
e 24 59
e 24 60
e 24 64
e 24 70
e 24 76
e 24 77
e 24 78
e 24 85
e 24 88
e 24 89
e 24 93
e 24 96
e 24 98
e 25 36
e 25 39
e 25 40
e 25 41
e 25 43
e 25 44
e 25 52
e 25 57
e 25 64
e 25 67
e 25 69
e 25 74
e 25 75
e 25 77
e 25 80
e 25 81
e 25 82
e 25 83
e 25 88
e 25 89
e 25 97
e 25 99
e 26 27
e 26 30
e 26 31
e 26 36
e 26 39
e 26 41
e 26 47
e 26 48
e 26 50
e 26 51
e 26 57
e 26 58
e 26 61
e 26 64
e 26 65
e 26 74
e 26 77
e 26 78
e 26 80
e 26 82
e 26 83
e 26 95
e 26 97
e 27 28
e 27 32
e 27 33
e 27 35
e 27 45
e 27 47
e 27 48
e 27 50
e 27 51
e 27 52
e 27 56
e 27 59
e 27 61
e 27 63
e 27 70
e 27 78
e 27 79
e 27 80
e 27 81
e 27 88
e 27 89
e 27 91
e 27 93
e 27 94
e 27 95
e 27 98
e 27 99
e 28 31
e 28 33
e 28 36
e 28 37
e 28 44
e 28 49
e 28 56
e 28 58
e 28 61
e 28 65
e 28 66
e 28 69
e 28 71
e 28 76
e 28 77
e 28 78
e 28 80
e 28 81
e 28 90
e 28 97
e 28 98
e 29 31
e 29 36
e 29 43
e 29 44
e 29 45
e 29 49
e 29 52
e 29 54
e 29 57
e 29 58
e 29 60
e 29 61
e 29 62
e 29 66
e 29 68
e 29 70
e 29 73
e 29 75
e 29 79
e 29 80
e 29 81
e 29 86
e 29 89
e 29 96
e 29 99
e 30 32
e 30 35
e 30 36
e 30 39
e 30 45
e 30 49
e 30 50
e 30 52
e 30 56
e 30 59
e 30 65
e 30 70
e 30 71
e 30 75
e 30 77
e 30 81
e 30 82
e 30 83
e 30 94
e 31 33
e 31 34
e 31 39
e 31 41
e 31 45
e 31 46
e 31 51
e 31 52
e 31 54
e 31 57
e 31 58
e 31 60
e 31 61
e 31 67
e 31 70
e 31 80
e 31 83
e 31 91
e 31 93
e 31 94
e 32 33
e 32 34
e 32 38
e 32 48
e 32 49
e 32 50
e 32 52
e 32 56
e 32 57
e 32 58
e 32 63
e 32 64
e 32 73
e 32 77
e 32 78
e 32 84
e 32 89
e 32 91
e 32 92
e 32 96
e 33 35
e 33 37
e 33 40
e 33 41
e 33 42
e 33 43
e 33 44
e 33 45
e 33 55
e 33 56
e 33 57
e 33 60
e 33 62
e 33 63
e 33 65
e 33 69
e 33 74
e 33 76
e 33 81
e 33 82
e 33 86
e 33 92
e 33 95
e 33 97
e 33 98
e 34 35
e 34 36
e 34 38
e 34 42
e 34 48
e 34 51
e 34 59
e 34 64
e 34 65
e 34 67
e 34 68
e 34 76
e 34 78
e 34 83
e 34 88
e 34 91
e 34 93
e 34 96
e 34 97
e 34 98
e 34 99
e 35 36
e 35 37
e 35 38
e 35 41
e 35 42
e 35 43
e 35 45
e 35 46
e 35 51
e 35 56
e 35 62
e 35 65
e 35 70
e 35 76
e 35 84
e 35 94
e 35 96
e 35 98
e 35 100
e 36 41
e 36 48
e 36 52
e 36 60
e 36 61
e 36 66
e 36 67
e 36 69
e 36 71
e 36 73
e 36 76
e 36 80
e 36 82
e 36 87
e 36 88
e 36 91
e 36 92
e 36 94
e 36 95
e 36 98
e 37 40
e 37 41
e 37 42
e 37 45
e 37 49
e 37 53
e 37 55
e 37 56
e 37 58
e 37 59
e 37 65
e 37 67
e 37 68
e 37 70
e 37 72
e 37 74
e 37 76
e 37 77
e 37 79
e 37 82
e 37 84
e 37 87
e 37 92
e 37 97
e 38 40
e 38 41
e 38 44
e 38 51
e 38 53
e 38 56
e 38 57
e 38 58
e 38 59
e 38 62
e 38 63
e 38 73
e 38 75
e 38 79
e 38 80
e 38 82
e 38 84
e 38 99
e 39 40
e 39 42
e 39 45
e 39 51
e 39 52
e 39 53
e 39 59
e 39 62
e 39 65
e 39 67
e 39 69
e 39 70
e 39 72
e 39 75
e 39 77
e 39 80
e 39 87
e 39 88
e 39 90
e 39 95
e 39 96
e 40 41
e 40 43
e 40 45
e 40 46
e 40 50
e 40 53
e 40 55
e 40 56
e 40 58
e 40 60
e 40 61
e 40 62
e 40 65
e 40 67
e 40 71
e 40 75
e 40 76
e 40 79
e 40 82
e 40 87
e 40 92
e 40 93
e 41 42
e 41 44
e 41 48
e 41 51
e 41 54
e 41 66
e 41 69
e 41 72
e 41 76
e 41 79
e 41 81
e 41 82
e 41 85
e 41 88
e 41 89
e 41 93
e 41 97
e 41 98
e 41 99
e 42 44
e 42 45
e 42 49
e 42 52
e 42 53
e 42 62
e 42 63
e 42 69
e 42 72
e 42 77
e 42 78
e 42 79
e 42 80
e 42 82
e 42 86
e 42 92
e 42 93
e 42 94
e 42 96
e 42 99
e 43 47
e 43 48
e 43 53
e 43 54
e 43 55
e 43 56
e 43 62
e 43 63
e 43 64
e 43 66
e 43 74
e 43 76
e 43 79
e 43 80
e 43 87
e 43 89
e 43 90
e 43 94
e 43 95
e 44 51
e 44 56
e 44 61
e 44 64
e 44 65
e 44 68
e 44 69
e 44 74
e 44 76
e 44 83
e 44 85
e 44 94
e 44 96
e 44 100
e 45 49
e 45 51
e 45 52
e 45 54
e 45 57
e 45 59
e 45 62
e 45 64
e 45 65
e 45 71
e 45 74
e 45 80
e 45 82
e 45 87
e 45 92
e 45 96
e 45 99
e 46 48
e 46 50
e 46 56
e 46 57
e 46 65
e 46 67
e 46 70
e 46 73
e 46 75
e 46 76
e 46 79
e 46 80
e 46 81
e 46 86
e 46 87
e 46 90
e 46 93
e 46 94
e 46 98
e 46 99
e 46 100
e 47 48
e 47 63
e 47 65
e 47 72
e 47 73
e 47 79
e 47 83
e 47 84
e 47 87
e 47 91
e 47 97
e 47 100
e 48 60
e 48 61
e 48 67
e 48 69
e 48 70
e 48 72
e 48 75
e 48 78
e 48 86
e 48 87
e 48 90
e 48 92
e 48 94
e 48 97
e 48 98
e 49 51
e 49 53
e 49 54
e 49 57
e 49 58
e 49 59
e 49 62
e 49 64
e 49 71
e 49 73
e 49 77
e 49 80
e 49 81
e 49 82
e 49 87
e 49 95
e 50 51
e 50 53
e 50 59
e 50 69
e 50 73
e 50 75
e 50 80
e 50 81
e 50 87
e 50 88
e 50 90
e 50 94
e 50 97
e 51 55
e 51 56
e 51 58
e 51 65
e 51 66
e 51 67
e 51 68
e 51 73
e 51 75
e 51 76
e 51 80
e 51 84
e 51 85
e 51 87
e 51 88
e 51 90
e 51 91
e 51 95
e 51 98
e 52 54
e 52 55
e 52 56
e 52 59
e 52 70
e 52 71
e 52 80
e 52 83
e 52 86
e 52 87
e 52 95
e 52 98
e 52 100
e 53 57
e 53 60
e 53 63
e 53 64
e 53 65
e 53 70
e 53 76
e 53 82
e 53 86
e 53 88
e 53 89
e 53 96
e 54 58
e 54 63
e 54 65
e 54 69
e 54 76
e 54 77
e 54 85
e 54 93
e 54 94
e 54 98
e 55 56
e 55 57
e 55 59
e 55 60
e 55 66
e 55 68
e 55 81
e 55 82
e 55 84
e 55 85
e 55 88
e 55 99
e 56 58
e 56 64
e 56 69
e 56 71
e 56 72
e 56 73
e 56 74
e 56 75
e 56 77
e 56 79
e 56 81
e 56 90
e 56 93
e 56 94
e 57 58
e 57 59
e 57 68
e 57 72
e 57 75
e 57 78
e 57 81
e 57 86
e 57 87
e 57 88
e 57 89
e 57 90
e 57 92
e 57 93
e 57 94
e 57 96
e 57 97
e 58 60
e 58 61
e 58 63
e 58 66
e 58 72
e 58 76
e 58 79
e 58 86
e 58 89
e 58 92
e 58 94
e 58 96
e 59 60
e 59 66
e 59 68
e 59 71
e 59 72
e 59 76
e 59 78
e 59 79
e 59 84
e 59 85
e 59 87
e 59 91
e 59 95
e 59 97
e 59 98
e 59 99
e 60 62
e 60 67
e 60 68
e 60 69
e 60 70
e 60 71
e 60 75
e 60 83
e 60 84
e 60 85
e 60 87
e 60 89
e 60 90
e 60 94
e 60 95
e 60 97
e 61 62
e 61 66
e 61 68
e 61 72
e 61 74
e 61 78
e 61 83
e 61 84
e 61 86
e 61 87
e 61 95
e 61 98
e 61 100
e 62 70
e 62 75
e 62 76
e 62 83
e 62 84
e 62 87
e 62 89
e 62 94
e 62 98
e 62 100
e 63 64
e 63 66
e 63 67
e 63 69
e 63 71
e 63 77
e 63 83
e 63 86
e 63 92
e 63 94
e 64 67
e 64 70
e 64 73
e 64 75
e 64 77
e 64 84
e 64 86
e 64 87
e 64 92
e 64 95
e 64 97
e 64 99
e 64 100
e 65 74
e 65 75
e 65 80
e 65 85
e 65 88
e 65 90
e 65 93
e 65 94
e 66 74
e 66 77
e 66 78
e 66 86
e 66 87
e 66 98
e 66 100
e 67 70
e 67 71
e 67 83
e 67 87
e 67 89
e 67 90
e 67 92
e 67 93
e 67 95
e 67 97
e 67 100
e 68 73
e 68 74
e 68 79
e 68 80
e 68 83
e 68 86
e 68 87
e 68 91
e 68 92
e 68 94
e 68 98
e 69 71
e 69 72
e 69 74
e 69 76
e 69 81
e 69 83
e 69 86
e 69 98
e 69 99
e 70 74
e 70 76
e 70 77
e 70 80
e 70 83
e 70 87
e 70 92
e 70 97
e 70 98
e 70 99
e 71 72
e 71 73
e 71 74
e 71 77
e 71 79
e 71 81
e 71 87
e 71 91
e 71 92
e 71 94
e 72 74
e 72 75
e 72 80
e 72 93
e 72 94
e 72 95
e 73 74
e 73 76
e 73 78
e 73 81
e 73 84
e 73 91
e 73 93
e 73 94
e 73 95
e 74 77
e 74 80
e 74 85
e 74 87
e 74 91
e 74 93
e 74 96
e 74 100
e 75 80
e 75 90
e 75 91
e 75 98
e 75 100
e 76 77
e 76 79
e 76 83
e 76 84
e 76 86
e 76 89
e 76 92
e 76 93
e 76 99
e 77 78
e 77 82
e 77 86
e 77 87
e 77 91
e 77 94
e 77 97
e 77 100
e 78 79
e 78 81
e 78 84
e 78 86
e 78 89
e 78 94
e 78 95
e 79 82
e 79 87
e 79 93
e 79 100
e 80 83
e 80 85
e 80 87
e 80 90
e 80 94
e 80 95
e 80 97
e 80 99
e 81 95
e 81 98
e 81 99
e 81 100
e 82 89
e 82 90
e 82 94
e 82 95
e 83 85
e 83 91
e 83 94
e 83 98
e 83 99
e 83 100
e 84 89
e 84 92
e 84 96
e 84 97
e 85 87
e 85 88
e 85 89
e 85 92
e 85 95
e 85 98
e 85 99
e 86 89
e 86 92
e 86 98
e 88 90
e 88 93
e 88 96
e 88 99
e 89 92
e 90 95
e 90 96
e 90 100
e 91 92
e 91 93
e 91 94
e 91 95
e 92 96
e 92 99
e 93 95
e 93 98
e 93 100
e 94 99
e 95 96
e 96 98
e 96 100
e 97 99
e 97 100
